set C := 1 2 3 4 5 6 7 8 9 10;

param q :=
    1 37.10
    2 44.01
    3 27.51
    4 24.79
    5 43.70
    6 13.57
    7 31.56
    8 42.93
    9 29.19
    10 37.30;
param ca :=
    1 175.94
    2 229.97
    3 174.41
    4 178.90
    5 171.11
    6 224.14
    7 210.44
    8 241.61
    9 157.45
    10 226.09;
param cc :=
    1 45.98
    2 41.47
    3 47.46
    4 43.50
    5 43.36
    6 31.30
    7 33.38
    8 40.20
    9 45.48
    10 30.14;
param cp :=
    1 6.39
    2 6.15
    3 8.05
    4 11.84
    5 11.11
    6 7.26
    7 9.81
    8 5.13
    9 11.50
    10 7.79;
param sMin := 0;
param sMax := 80;

namespace t0
{
    set A := 2;
    set AAnt := 1;
    set P := 3 4 5 6 7 8 9 10;
    set S := 1;

    param p :=
        1 1.0000000000;
    param d :=
        1 15.98;
    param h := 1;
    param s0 := 20;
}

namespace t1
{
    set AAnt := 2;
    set P := 3 4 5 6 7 8 9 10;
    set PAnt := 3 4 5 6 7 8 9 10;
    set S := 1 2;

    param p :=
        1 0.3369087294
        2 0.6630912706;
    param d :=
        1 38.68
        2 46.49;
    param h := 1;
}

namespace t2
{
    set A2Ant := 2;
    set P := 3 4 5 6 7 8 9 10;
    set PAnt := 3 4 5 6 7 8 9 10;
    set S := 1 2;

    param p :=
        1 0.4682117168
        2 0.5317882832;
    param d :=
        1 41.88
        2 47.35;
    param h := 1;
}

namespace t3
{
    set P := 3 4 5 6 7 8 9 10;
    set PAnt := 3 4 5 6 7 8 9 10;
    set S := 1 2;

    param p :=
        1 0.3385667680
        2 0.6614332320;
    param d :=
        1 28.05
        2 20.83;
    param h := 1;
}

namespace t4
{
    set PAnt := 3 4 5 6 7 8 9 10;
    set S := 1 2;

    param p :=
        1 0.6624967964
        2 0.3375032036;
    param d :=
        1 48.88
        2 47.41;
    param h := 1;
}
